\* Premium_Optimisation *\
Minimize
OBJ: 50 g_0_A + 50 g_0_B + 50 g_1_A + 50 g_1_B + 50 g_2_A + 50 g_2_B
 + 50 g_3_A + 50 g_3_B + 50 g_4_A + 50 g_4_B
Subject To
c01_UB0_A: g_0_A + 0.497508312542 pi_0 >= 0.00497508312542
c01_UB0_B: g_0_B + 0.990066334662 pi_0 >= 0.0198013266932
c01_UB1_A: g_1_A + 0.492558022121 pi_1 >= 0.00492558022121
c01_UB1_B: g_1_B + 0.970461707722 pi_1 >= 0.0194092341544
c01_UB2_A: g_2_A + 0.487656987912 pi_2 >= 0.00487656987912
c01_UB2_B: g_2_B + 0.951245278404 pi_2 >= 0.0190249055681
c01_UB3_A: g_3_A + 0.482804719809 pi_3 >= 0.00482804719809
c01_UB3_B: g_3_B + 0.932409359881 pi_3 >= 0.0186481871976
c01_UB4_A: g_4_A + 48.0394719576 pi_4 >= 0.480394719576
c01_UB4_B: g_4_B + 46.1558173193 pi_4 >= 0.923116346387
c02_LB0_A: - g_0_A + 0.497508312542 pi_0 <= 0.00497508312542
c02_LB0_B: - g_0_B + 0.990066334662 pi_0 <= 0.0198013266932
c02_LB1_A: - g_1_A + 0.492558022121 pi_1 <= 0.00492558022121
c02_LB1_B: - g_1_B + 0.970461707722 pi_1 <= 0.0194092341544
c02_LB2_A: - g_2_A + 0.487656987912 pi_2 <= 0.00487656987912
c02_LB2_B: - g_2_B + 0.951245278404 pi_2 <= 0.0190249055681
c02_LB3_A: - g_3_A + 0.482804719809 pi_3 <= 0.00482804719809
c02_LB3_B: - g_3_B + 0.932409359881 pi_3 <= 0.0186481871976
c02_LB4_A: - g_4_A + 48.0394719576 pi_4 <= 0.480394719576
c02_LB4_B: - g_4_B + 46.1558173193 pi_4 <= 0.923116346387
c031: pi_0 - pi_1 >= 0
c032: pi_1 - pi_2 >= 0
c033: pi_2 - pi_3 >= 0
c034: pi_3 - pi_4 >= 0
Bounds
 0 <= g_0_A
 0 <= g_0_B
 0 <= g_1_A
 0 <= g_1_B
 0 <= g_2_A
 0 <= g_2_B
 0 <= g_3_A
 0 <= g_3_B
 0 <= g_4_A
 0 <= g_4_B
 0 <= pi_0
 0 <= pi_1
 0 <= pi_2
 0 <= pi_3
 0 <= pi_4
End
